NAME: cuum380.tsp
TYPE: TSP
COMMENT: User-generated TSP file
DIMENSION: 380
EDGE_WEIGHT_TYPE: EUC_2D
NODE_COORD_SECTION
1 80.0 49.0
2 74.0 361.0
3 123.0 113.0
4 278.0 25.0
5 201.0 190.0
6 53.0 70.0
7 174.0 336.0
8 118.0 364.0
9 173.0 293.0
10 304.0 133.0
11 41.0 153.0
12 174.0 267.0
13 224.0 50.0
14 372.0 349.0
15 266.0 18.0
16 142.0 156.0
17 299.0 214.0
18 104.0 189.0
19 116.0 127.0
20 217.0 230.0
21 290.0 147.0
22 240.0 241.0
23 25.0 90.0
24 108.0 98.0
25 359.0 156.0
26 144.0 42.0
27 222.0 236.0
28 228.0 194.0
29 146.0 131.0
30 353.0 357.0
31 210.0 297.0
32 334.0 98.0
33 364.0 239.0
34 332.0 204.0
35 326.0 75.0
36 89.0 215.0
37 230.0 114.0
38 127.0 222.0
39 231.0 357.0
40 278.0 235.0
41 159.0 162.0
42 357.0 262.0
43 261.0 250.0
44 110.0 139.0
45 156.0 140.0
46 342.0 251.0
47 38.0 257.0
48 220.0 169.0
49 226.0 249.0
50 112.0 46.0
51 326.0 17.0
52 166.0 209.0
53 5.0 281.0
54 26.0 375.0
55 258.0 24.0
56 274.0 163.0
57 268.0 203.0
58 56.0 21.0
59 68.0 254.0
60 278.0 271.0
61 301.0 288.0
62 11.0 149.0
63 347.0 363.0
64 180.0 143.0
65 255.0 123.0
66 38.0 325.0
67 333.0 343.0
68 244.0 369.0
69 124.0 180.0
70 117.0 96.0
71 185.0 357.0
72 218.0 105.0
73 225.0 108.0
74 26.0 10.0
75 281.0 26.0
76 184.0 370.0
77 28.0 11.0
78 72.0 130.0
79 171.0 45.0
80 13.0 169.0
81 173.0 268.0
82 94.0 377.0
83 126.0 303.0
84 164.0 33.0
85 56.0 353.0
86 345.0 240.0
87 225.0 37.0
88 328.0 118.0
89 76.0 111.0
90 24.0 376.0
91 231.0 299.0
92 16.0 148.0
93 132.0 116.0
94 147.0 129.0
95 324.0 233.0
96 45.0 49.0
97 37.0 292.0
98 144.0 93.0
99 77.0 328.0
100 303.0 80.0
101 196.0 54.0
102 3.0 31.0
103 362.0 294.0
104 156.0 115.0
105 277.0 100.0
106 140.0 31.0
107 9.0 224.0
108 234.0 374.0
109 9.0 177.0
110 5.0 141.0
111 216.0 251.0
112 142.0 155.0
113 71.0 360.0
114 73.0 375.0
115 94.0 219.0
116 104.0 121.0
117 225.0 337.0
118 336.0 329.0
119 205.0 184.0
120 288.0 329.0
121 201.0 155.0
122 249.0 60.0
123 232.0 190.0
124 142.0 363.0
125 161.0 131.0
126 317.0 313.0
127 21.0 195.0
128 123.0 65.0
129 300.0 311.0
130 308.0 193.0
131 122.0 283.0
132 86.0 131.0
133 263.0 41.0
134 118.0 189.0
135 367.0 102.0
136 68.0 212.0
137 59.0 79.0
138 172.0 57.0
139 79.0 178.0
140 141.0 140.0
141 6.0 321.0
142 238.0 50.0
143 215.0 89.0
144 143.0 242.0
145 19.0 274.0
146 54.0 250.0
147 269.0 22.0
148 52.0 312.0
149 15.0 102.0
150 249.0 99.0
151 204.0 149.0
152 272.0 370.0
153 253.0 135.0
154 216.0 87.0
155 12.0 118.0
156 60.0 192.0
157 322.0 297.0
158 208.0 237.0
159 41.0 144.0
160 123.0 73.0
161 53.0 374.0
162 378.0 138.0
163 315.0 88.0
164 164.0 316.0
165 248.0 343.0
166 133.0 214.0
167 9.0 241.0
168 272.0 349.0
169 303.0 188.0
170 158.0 296.0
171 120.0 227.0
172 359.0 132.0
173 99.0 303.0
174 86.0 132.0
175 71.0 271.0
176 327.0 76.0
177 372.0 336.0
178 235.0 324.0
179 283.0 120.0
180 15.0 332.0
181 79.0 117.0
182 287.0 90.0
183 286.0 114.0
184 252.0 169.0
185 95.0 216.0
186 301.0 183.0
187 288.0 109.0
188 16.0 340.0
189 26.0 152.0
190 315.0 119.0
191 39.0 303.0
192 254.0 297.0
193 332.0 160.0
194 379.0 363.0
195 26.0 139.0
196 247.0 227.0
197 218.0 378.0
198 194.0 103.0
199 93.0 6.0
200 365.0 80.0
201 168.0 364.0
202 225.0 285.0
203 96.0 186.0
204 343.0 278.0
205 223.0 257.0
206 250.0 86.0
207 244.0 297.0
208 80.0 82.0
209 338.0 246.0
210 347.0 9.0
211 284.0 343.0
212 94.0 255.0
213 173.0 79.0
214 340.0 314.0
215 259.0 63.0
216 2.0 225.0
217 261.0 93.0
218 166.0 127.0
219 353.0 150.0
220 284.0 226.0
221 141.0 347.0
222 182.0 123.0
223 13.0 38.0
224 320.0 95.0
225 333.0 52.0
226 267.0 333.0
227 95.0 133.0
228 278.0 7.0
229 171.0 47.0
230 350.0 231.0
231 34.0 325.0
232 109.0 198.0
233 95.0 279.0
234 12.0 185.0
235 104.0 60.0
236 98.0 328.0
237 188.0 104.0
238 280.0 71.0
239 117.0 234.0
240 13.0 165.0
241 147.0 327.0
242 299.0 364.0
243 70.0 182.0
244 84.0 164.0
245 205.0 23.0
246 241.0 147.0
247 210.0 147.0
248 350.0 110.0
249 242.0 104.0
250 143.0 162.0
251 222.0 34.0
252 225.0 103.0
253 316.0 105.0
254 155.0 318.0
255 321.0 31.0
256 48.0 145.0
257 124.0 79.0
258 255.0 333.0
259 349.0 242.0
260 111.0 13.0
261 158.0 86.0
262 368.0 328.0
263 278.0 101.0
264 22.0 169.0
265 247.0 48.0
266 172.0 255.0
267 335.0 61.0
268 107.0 313.0
269 240.0 161.0
270 232.0 79.0
271 219.0 232.0
272 151.0 44.0
273 47.0 233.0
274 34.0 118.0
275 75.0 105.0
276 326.0 61.0
277 245.0 373.0
278 343.0 317.0
279 7.0 280.0
280 288.0 56.0
281 278.0 266.0
282 203.0 77.0
283 361.0 277.0
284 168.0 63.0
285 265.0 151.0
286 263.0 201.0
287 269.0 93.0
288 286.0 287.0
289 126.0 121.0
290 313.0 74.0
291 216.0 134.0
292 156.0 175.0
293 231.0 330.0
294 62.0 74.0
295 179.0 302.0
296 92.0 147.0
297 252.0 277.0
298 254.0 370.0
299 254.0 208.0
300 159.0 53.0
301 229.0 42.0
302 239.0 194.0
303 208.0 30.0
304 283.0 268.0
305 214.0 226.0
306 359.0 358.0
307 330.0 61.0
308 349.0 252.0
309 129.0 29.0
310 357.0 115.0
311 66.0 292.0
312 294.0 29.0
313 142.0 96.0
314 54.0 338.0
315 350.0 309.0
316 214.0 257.0
317 107.0 209.0
318 199.0 221.0
319 145.0 154.0
320 293.0 275.0
321 80.0 199.0
322 326.0 126.0
323 48.0 234.0
324 237.0 195.0
325 113.0 11.0
326 192.0 307.0
327 88.0 365.0
328 83.0 221.0
329 339.0 301.0
330 164.0 262.0
331 223.0 76.0
332 275.0 117.0
333 8.0 185.0
334 213.0 322.0
335 186.0 183.0
336 205.0 307.0
337 122.0 64.0
338 15.0 158.0
339 196.0 369.0
340 82.0 375.0
341 275.0 1.0
342 297.0 119.0
343 139.0 209.0
344 100.0 310.0
345 60.0 169.0
346 202.0 295.0
347 71.0 131.0
348 261.0 208.0
349 5.0 5.0
350 107.0 29.0
351 284.0 134.0
352 233.0 149.0
353 369.0 169.0
354 195.0 317.0
355 178.0 181.0
356 253.0 123.0
357 150.0 355.0
358 352.0 208.0
359 328.0 76.0
360 224.0 179.0
361 277.0 56.0
362 80.0 24.0
363 314.0 196.0
364 143.0 265.0
365 206.0 122.0
366 358.0 330.0
367 83.0 178.0
368 209.0 335.0
369 187.0 173.0
370 11.0 222.0
371 248.0 60.0
372 304.0 286.0
373 226.0 128.0
374 183.0 32.0
375 215.0 183.0
376 169.0 21.0
377 58.0 310.0
378 146.0 355.0
379 250.0 200.0
380 331.0 27.0
EOF





